NAME : CHRVRP
COMMENT : master instance for CHRVRP
EDGE_WEIGHT_TYPE : EUC_2D
NODE_COORD_SECTION
V100 40.769e+03 71.077e+03
V101 5.537e+03 96.579e+03
V102 78.853e+03 0.422e+03
S0 50.837e+03 68.389e+03
S1 66.390e+03 40.535e+03
D10 96.002e+03 32.052e+03
D11 69.951e+03 36.641e+03
D12 99.987e+03 70.965e+03
D13 22.007e+03 90.014e+03
D14 36.106e+03 53.412e+03
D15 73.984e+03 24.729e+03
D16 99.646e+03 67.181e+03
D17 31.635e+03 56.173e+03
D18 13.654e+03 54.256e+03
D19 38.398e+03 89.345e+03
EOF
